StudentsNr = 15;
InstructorsNr = 10;
DaysNr = 2;
SlotsPerDay = 10;
AvailabilitySlotsLenght = 2;
RoomNr = 2;
ProgrammNr = 2;
DegreeNr = 1;
RolesNr = 2;
CoursesNr = 3;
InstructorsProgramm = [{1, 2}, {1}, {2}, {1, 2}, {1}, {1}, {2}, {1}, {1}, {1, 2}];
InstructorsRoles = [{}, {}, {1, 2}, {}, {1}, {2}, {1}, {1}, {1}, {2}];
InstructorsAvailability = [|0, 1, 0, 1, 1, 1, 0, 0, 0, 0, |0, 0, 1, 1, 1, 1, 1, 1, 1, 1, |1, 1, 1, 1, 0, 0, 1, 1, 1, 1, |1, 1, 1, 0, 0, 0, 0, 1, 0, 0, |0, 0, 0, 1, 1, 1, 1, 1, 1, 1, |1, 1, 1, 1, 1, 0, 1, 1, 1, 1, |1, 1, 1, 1, 1, 1, 1, 1, 1, 1, |0, 1, 1, 0, 0, 0, 0, 0, 1, 1, |0, 0, 1, 0, 1, 1, 1, 0, 0, 1, |0, 1, 1, 1, 1, 1, 1, 1, 1, 0|];
StudentsProgramm = [2, 2, 2, 2, 2, 2, 2, 2, 1, 1, 2, 1, 2, 1, 1];
StudentsDegree = [1, 1, 1, 1, 1, 1, 1, 1, 1, 1, 1, 1, 1, 1, 1];
StudentsSupervisorId = [1, 3, 4, 3, 7, 3, 1, 4, 10, 6, 4, 4, 7, 8, 4];
StudentsCourseIds = [{1, 3}, {1, 3}, {2, 3}, {2, 3}, {2, 3}, {2, 3}, {1, 3}, {1, 2}, {1, 2}, {1, 2}, {1, 2}, {1, 3}, {1, 2}, {2, 3}, {1, 3}];
StudentsAvailability = [|0, 0, 1, 0, 0, 1, 1, 1, 1, 1, |1, 1, 1, 1, 1, 1, 0, 0, 0, 1, |1, 1, 1, 1, 1, 1, 1, 1, 1, 1, |1, 1, 1, 1, 0, 0, 0, 1, 1, 1, |1, 1, 1, 1, 1, 1, 1, 1, 1, 1, |1, 1, 1, 1, 1, 1, 1, 0, 0, 1, |1, 1, 1, 1, 1, 1, 1, 1, 1, 1, |1, 0, 1, 1, 1, 1, 1, 1, 0, 1, |1, 1, 1, 1, 0, 1, 1, 1, 1, 1, |0, 1, 1, 1, 1, 1, 1, 1, 1, 0, |1, 1, 1, 0, 1, 0, 0, 1, 1, 1, |1, 1, 1, 1, 1, 1, 1, 1, 1, 0, |1, 1, 1, 1, 1, 0, 1, 0, 0, 1, |0, 0, 0, 1, 1, 1, 1, 1, 1, 1, |1, 1, 1, 1, 0, 1, 1, 1, 1, 1|];
CoursesInstructorIds = [{1, 2, 4, 5, 8, 9}, {4, 6, 7, 8, 10}, {7, 10}];
